c   #vars: 128   #clauses: 587   #literals: 1618
c 
p cnf 128 587
10 -86 92 93 0
-2 -3 0
-4 -5 0
-6 -7 0
-8 -9 0
12 76 77 -106 0
1 -6 84 85 0
17 106 107 -124 0
-13 -14 0
-15 -16 0
40 -80 -114 117 0
-18 -19 0
-20 -21 0
-22 -23 0
-24 -25 0
-26 -27 0
-28 -29 0
-30 -31 0
-32 -33 0
-34 -35 0
4 5 108 109 0
47 48 72 73 0
-36 -37 0
-38 -39 0
10 -65 86 -92 0
43 44 98 99 0
41 42 51 -104 0
28 29 45 46 0
-41 -42 0
-43 -44 0
-45 -46 0
-47 -48 0
-49 -50 0
-75 78 126 127 0
-52 -53 0
-54 -55 0
-56 -57 0
-58 -59 0
-60 -61 0
-62 -63 0
-64 -65 0
-66 -67 0
-68 -69 0
-70 -71 0
-72 -73 0
-74 -75 0
-76 -77 0
56 57 83 -126 0
-79 -80 0
-81 -82 0
-65 66 67 86 0
-84 -85 0
-53 87 115 116 0
-45 114 -116 117 0
-88 -89 0
-90 -91 0
-92 -93 0
-94 -95 0
-96 -97 0
-98 -99 0
-100 -101 0
-102 -103 0
-104 -105 0
-106 -107 0
-108 -109 0
-110 -111 0
-112 -113 0
-115 -116 0
11 78 -102 -127 0
-118 -119 0
38 39 112 113 0
-120 -121 0
6 7 100 101 0
-122 -123 0
-124 -125 0
-126 -127 0
-6 10 92 93 0
-1 -7 0
32 33 84 85 0
11 -53 -78 87 0
-1 -85 0
11 -53 87 -102 0
11 -78 87 -116 0
-1 -95 0
40 79 80 -117 0
-2 -8 0
-3 -9 0
-2 -36 0
-3 -37 0
49 50 120 121 0
-2 -38 0
-3 -39 0
79 80 84 85 0
-2 -81 0
-3 -82 0
76 77 90 91 0
-2 -88 0
-3 -89 0
58 59 106 107 0
-2 -102 0
-3 -103 0
4 5 66 67 0
-2 -126 0
-3 -127 0
8 9 98 99 0
11 -87 102 103 0
-3 -128 0
-4 -6 0
-5 -7 0
4 5 13 14 0
-4 -13 0
-5 -14 0
58 59 62 63 0
-4 -58 0
-5 -59 0
2 3 38 39 0
-4 -66 0
-5 -67 0
22 23 90 91 0
-4 -88 0
-5 -89 0
79 80 110 111 0
-4 -104 0
-5 -105 0
92 93 118 119 0
-4 -108 0
-5 -109 0
52 53 72 73 0
11 -78 102 103 0
-5 -128 0
94 95 108 109 0
12 -15 76 77 0
-7 -10 0
18 19 30 31 0
22 23 104 105 0
-13 83 126 127 0
30 31 102 103 0
-6 -66 0
-7 -67 0
45 46 102 103 0
-6 -100 0
-7 -101 0
24 25 38 39 0
-8 -20 0
-9 -21 0
94 95 112 113 0
-8 -49 0
-9 -50 0
56 57 68 69 0
-8 -60 0
-9 -61 0
-31 40 79 80 0
-8 -98 0
-9 -99 0
4 5 88 89 0
12 15 16 -106 0
-11 87 115 116 0
43 44 90 91 0
12 15 16 -76 0
-10 -93 0
30 31 52 53 0
51 -96 104 105 0
-56 83 126 127 0
1 6 7 -94 0
-13 56 57 83 0
66 67 76 77 0
1 6 7 -84 0
-14 -45 114 117 0
1 -84 94 95 0
-11 -103 0
4 5 6 7 0
17 -68 106 107 0
-12 -16 0
118 119 126 127 0
17 -106 124 125 0
-12 -77 0
32 33 126 127 0
17 -68 124 125 0
-12 -107 0
4 5 58 59 0
-13 -28 0
-14 -29 0
-10 66 67 86 0
-14 -83 0
-13 -114 0
8 9 20 21 0
-15 -43 0
-16 -44 0
20 21 98 99 0
-15 -88 0
-16 -89 0
20 21 26 27 0
-15 -110 0
-16 -111 0
26 27 84 85 0
-15 -120 0
-16 -121 0
15 16 110 111 0
-31 40 -114 117 0
-17 -69 0
24 25 81 82 0
40 -45 -80 117 0
-17 -107 0
22 23 60 61 0
-31 40 -45 117 0
-17 -125 0
74 75 84 85 0
-18 -30 0
-19 -31 0
2 3 8 9 0
-18 -79 0
-19 -80 0
49 50 108 109 0
-18 -100 0
-19 -101 0
4 5 104 105 0
-18 -118 0
-19 -119 0
24 25 34 35 0
-20 -26 0
-21 -27 0
-20 -32 0
-21 -33 0
22 23 36 37 0
-20 -81 0
-21 -82 0
-20 -98 0
-21 -99 0
2 3 126 127 0
-22 -36 0
-23 -37 0
13 14 28 29 0
-22 -60 0
-23 -61 0
20 21 32 33 0
-22 -90 0
-23 -91 0
47 48 115 116 0
-22 -104 0
-23 -105 0
66 67 84 85 0
1 -6 94 95 0
-23 -128 0
11 -75 78 -87 0
-24 -34 0
-25 -35 0
68 69 100 101 0
-24 -38 0
-25 -39 0
72 73 90 91 0
-24 -70 0
-25 -71 0
58 59 110 111 0
-24 -81 0
-25 -82 0
76 77 115 116 0
-26 -60 0
-27 -61 0
54 55 68 69 0
-26 -64 0
-27 -65 0
47 48 49 50 0
-26 -84 0
-27 -85 0
41 42 124 125 0
-28 -45 0
-29 -46 0
11 78 -87 -127 0
-28 -62 0
-29 -63 0
-28 -112 0
-29 -113 0
8 9 49 50 0
-28 -122 0
-29 -123 0
64 65 110 111 0
-30 -40 0
41 42 51 -96 0
60 61 122 123 0
-30 -43 0
-31 -44 0
60 61 106 107 0
-30 -49 0
-31 -50 0
41 42 112 113 0
-30 -52 0
-31 -53 0
47 48 106 107 0
-30 -102 0
-31 -103 0
34 35 56 57 0
-32 -54 0
-33 -55 0
17 68 69 -124 0
-32 -70 0
-33 -71 0
94 95 104 105 0
-32 -84 0
-33 -85 0
90 91 98 99 0
-32 -88 0
-33 -89 0
-32 -100 0
-33 -101 0
30 31 40 -117 0
-32 -102 0
-33 -103 0
38 39 43 44 0
-32 -126 0
-33 -127 0
2 3 36 37 0
-34 -56 0
-35 -57 0
-34 -94 0
-35 -95 0
28 29 112 113 0
-34 -112 0
-35 -113 0
2 3 102 103 0
-4 22 23 128 0
2 3 81 82 0
-2 22 23 128 0
26 27 64 65 0
-36 -88 0
-37 -89 0
30 31 43 44 0
-36 -118 0
-37 -119 0
49 50 79 80 0
-38 -43 0
-39 -44 0
30 31 49 50 0
-38 -66 0
-39 -67 0
92 93 124 125 0
-38 -96 0
-39 -97 0
100 101 115 116 0
-38 -112 0
-39 -113 0
28 29 122 123 0
-38 -118 0
-39 -119 0
68 69 108 109 0
-40 -79 0
51 96 97 -104 0
41 42 72 73 0
-41 51 96 97 0
-11 78 126 127 0
-42 -51 0
45 46 -114 117 0
-41 -72 0
-42 -73 0
-40 45 46 117 0
-41 -92 0
-42 -93 0
70 71 112 113 0
-41 -112 0
-42 -113 0
2 3 -22 128 0
-41 -124 0
-42 -125 0
11 -75 78 -102 0
-43 -56 0
-44 -57 0
43 44 68 69 0
-43 -68 0
-44 -69 0
30 31 40 -80 0
-43 -70 0
-44 -71 0
47 48 92 93 0
-43 -90 0
-44 -91 0
54 55 126 127 0
-43 -98 0
-44 -99 0
-45 -74 0
-46 -75 0
-45 -102 0
-46 -103 0
15 16 120 121 0
-45 -110 0
-46 -111 0
52 53 74 75 0
13 14 114 -116 0
-46 -117 0
114 115 116 -117 0
-47 -49 0
-48 -50 0
1 84 85 -94 0
-47 -72 0
-48 -73 0
32 33 54 55 0
-47 -92 0
-48 -93 0
45 46 74 75 0
-47 -106 0
-48 -107 0
26 27 60 61 0
-47 -115 0
-48 -116 0
38 39 66 67 0
-49 -68 0
-50 -69 0
79 80 81 82 0
-49 -79 0
-50 -80 0
36 37 118 119 0
-49 -108 0
-50 -109 0
38 39 118 119 0
-49 -120 0
-50 -121 0
-41 51 104 105 0
74 75 78 -127 0
-51 -97 0
64 65 74 75 0
-11 74 75 78 0
-51 -105 0
32 33 70 71 0
-52 -72 0
-53 -73 0
6 7 10 -86 0
-52 -74 0
-53 -75 0
52 53 120 121 0
-52 -87 0
-40 114 -116 117 0
10 -67 86 -92 0
-52 -120 0
-53 -121 0
-6 10 -67 86 0
-54 -62 0
-55 -63 0
120 121 126 127 0
-54 -68 0
-55 -69 0
49 50 68 69 0
-54 -126 0
-55 -127 0
43 44 70 71 0
-56 -68 0
-57 -69 0
2 3 88 89 0
64 65 -67 86 0
-57 -83 0
28 29 62 63 0
-58 -62 0
-59 -63 0
62 63 96 97 0
-58 -81 0
-59 -82 0
54 55 62 63 0
-58 -106 0
-59 -107 0
45 46 110 111 0
-58 -110 0
-59 -111 0
60 61 72 73 0
-60 -72 0
-61 -73 0
-60 -106 0
-61 -107 0
12 -15 106 107 0
-60 -122 0
-61 -123 0
68 69 115 116 0
-62 -96 0
-63 -97 0
64 65 96 97 0
-62 -104 0
-63 -105 0
24 25 70 71 0
-64 -74 0
-65 -75 0
76 77 120 121 0
-64 -86 0
52 53 87 -116 0
12 -76 106 107 0
-64 -96 0
-65 -97 0
-14 114 115 116 0
-64 -110 0
-65 -111 0
15 16 88 89 0
-66 -76 0
-67 -77 0
62 63 104 105 0
-66 -84 0
-67 -85 0
32 33 100 101 0
-66 -86 0
-11 52 53 87 0
43 44 56 57 0
-68 -100 0
-69 -101 0
18 19 118 119 0
-68 -108 0
-69 -109 0
120 121 122 123 0
-68 -115 0
-69 -116 0
-2 4 5 128 0
-70 -74 0
-71 -75 0
34 35 112 113 0
-70 -112 0
-71 -113 0
41 42 92 93 0
-72 -90 0
-73 -91 0
70 71 74 75 0
-72 -110 0
-73 -111 0
11 87 -102 -116 0
-74 -78 0
13 14 83 -126 0
18 19 79 80 0
-74 -84 0
-75 -85 0
36 37 88 89 0
-76 -90 0
-77 -91 0
15 16 43 44 0
-76 -115 0
-77 -116 0
32 33 88 89 0
-76 -120 0
-77 -121 0
-78 -126 0
13 14 -56 83 0
81 82 122 123 0
-79 -81 0
-80 -82 0
58 59 81 82 0
-79 -84 0
-80 -85 0
20 21 81 82 0
-79 -110 0
-80 -111 0
6 7 10 -92 0
-81 -122 0
-82 -123 0
2 3 -4 128 0
-10 64 65 86 0
-83 -127 0
8 9 60 61 0
-87 -115 0
-14 -40 114 117 0
-6 10 -65 86 0
-90 -98 0
-91 -99 0
34 35 94 95 0
-92 -118 0
-93 -119 0
6 7 66 67 0
-92 -124 0
-93 -125 0
18 19 100 101 0
-94 -104 0
-95 -105 0
-94 -108 0
-95 -109 0
104 105 126 127 0
-94 -112 0
-95 -113 0
4 5 -22 128 0
-100 -115 0
-101 -116 0
72 73 110 111 0
-104 -126 0
-105 -127 0
-114 -115 0
17 68 69 -106 0
122 123 124 125 0
-118 -126 0
-119 -127 0
13 14 114 -117 0
-120 -122 0
-121 -123 0
38 39 96 97 0
-120 -126 0
-121 -127 0
32 33 102 103 0
-122 -124 0
-123 -125 0
